c *********************************
c * Circuit generated by BenCGen
c *
c * CarryLookaheadBlock_92_92_92_InOutT
c *
c * Ports with 1 gate(s): 2
c * Ports with 2 gate(s): 392
c * Ports with 3 gate(s): 92
c * Ports with 4 gate(s): 69
c * Ports with 5 gate(s): 46
c * Total gates: 601
c *********************************
p cnf 785 2353
1 279 0
-1 -279 0
1 -278 0
279 -278 0
-1 -279 278 0
1 93 -280 0
-1 93 280 0
1 -93 280 0
-1 -93 -280 0
1 -372 0
93 -372 0
-1 -93 372 0
2 94 -281 0
-2 94 281 0
2 -94 281 0
-2 -94 -281 0
2 -373 0
94 -373 0
-2 -94 373 0
3 95 -282 0
-3 95 282 0
3 -95 282 0
-3 -95 -282 0
3 -374 0
95 -374 0
-3 -95 374 0
4 96 -283 0
-4 96 283 0
4 -96 283 0
-4 -96 -283 0
4 -375 0
96 -375 0
-4 -96 375 0
5 97 -284 0
-5 97 284 0
5 -97 284 0
-5 -97 -284 0
5 -376 0
97 -376 0
-5 -97 376 0
6 98 -285 0
-6 98 285 0
6 -98 285 0
-6 -98 -285 0
6 -377 0
98 -377 0
-6 -98 377 0
7 99 -286 0
-7 99 286 0
7 -99 286 0
-7 -99 -286 0
7 -378 0
99 -378 0
-7 -99 378 0
8 100 -287 0
-8 100 287 0
8 -100 287 0
-8 -100 -287 0
8 -379 0
100 -379 0
-8 -100 379 0
9 101 -288 0
-9 101 288 0
9 -101 288 0
-9 -101 -288 0
9 -380 0
101 -380 0
-9 -101 380 0
10 102 -289 0
-10 102 289 0
10 -102 289 0
-10 -102 -289 0
10 -381 0
102 -381 0
-10 -102 381 0
11 103 -290 0
-11 103 290 0
11 -103 290 0
-11 -103 -290 0
11 -382 0
103 -382 0
-11 -103 382 0
12 104 -291 0
-12 104 291 0
12 -104 291 0
-12 -104 -291 0
12 -383 0
104 -383 0
-12 -104 383 0
13 105 -292 0
-13 105 292 0
13 -105 292 0
-13 -105 -292 0
13 -384 0
105 -384 0
-13 -105 384 0
14 106 -293 0
-14 106 293 0
14 -106 293 0
-14 -106 -293 0
14 -385 0
106 -385 0
-14 -106 385 0
15 107 -294 0
-15 107 294 0
15 -107 294 0
-15 -107 -294 0
15 -386 0
107 -386 0
-15 -107 386 0
16 108 -295 0
-16 108 295 0
16 -108 295 0
-16 -108 -295 0
16 -387 0
108 -387 0
-16 -108 387 0
17 109 -296 0
-17 109 296 0
17 -109 296 0
-17 -109 -296 0
17 -388 0
109 -388 0
-17 -109 388 0
18 110 -297 0
-18 110 297 0
18 -110 297 0
-18 -110 -297 0
18 -389 0
110 -389 0
-18 -110 389 0
19 111 -298 0
-19 111 298 0
19 -111 298 0
-19 -111 -298 0
19 -390 0
111 -390 0
-19 -111 390 0
20 112 -299 0
-20 112 299 0
20 -112 299 0
-20 -112 -299 0
20 -391 0
112 -391 0
-20 -112 391 0
21 113 -300 0
-21 113 300 0
21 -113 300 0
-21 -113 -300 0
21 -392 0
113 -392 0
-21 -113 392 0
22 114 -301 0
-22 114 301 0
22 -114 301 0
-22 -114 -301 0
22 -393 0
114 -393 0
-22 -114 393 0
23 115 -302 0
-23 115 302 0
23 -115 302 0
-23 -115 -302 0
23 -394 0
115 -394 0
-23 -115 394 0
24 116 -303 0
-24 116 303 0
24 -116 303 0
-24 -116 -303 0
24 -395 0
116 -395 0
-24 -116 395 0
25 117 -304 0
-25 117 304 0
25 -117 304 0
-25 -117 -304 0
25 -396 0
117 -396 0
-25 -117 396 0
26 118 -305 0
-26 118 305 0
26 -118 305 0
-26 -118 -305 0
26 -397 0
118 -397 0
-26 -118 397 0
27 119 -306 0
-27 119 306 0
27 -119 306 0
-27 -119 -306 0
27 -398 0
119 -398 0
-27 -119 398 0
28 120 -307 0
-28 120 307 0
28 -120 307 0
-28 -120 -307 0
28 -399 0
120 -399 0
-28 -120 399 0
29 121 -308 0
-29 121 308 0
29 -121 308 0
-29 -121 -308 0
29 -400 0
121 -400 0
-29 -121 400 0
30 122 -309 0
-30 122 309 0
30 -122 309 0
-30 -122 -309 0
30 -401 0
122 -401 0
-30 -122 401 0
31 123 -310 0
-31 123 310 0
31 -123 310 0
-31 -123 -310 0
31 -402 0
123 -402 0
-31 -123 402 0
32 124 -311 0
-32 124 311 0
32 -124 311 0
-32 -124 -311 0
32 -403 0
124 -403 0
-32 -124 403 0
33 125 -312 0
-33 125 312 0
33 -125 312 0
-33 -125 -312 0
33 -404 0
125 -404 0
-33 -125 404 0
34 126 -313 0
-34 126 313 0
34 -126 313 0
-34 -126 -313 0
34 -405 0
126 -405 0
-34 -126 405 0
35 127 -314 0
-35 127 314 0
35 -127 314 0
-35 -127 -314 0
35 -406 0
127 -406 0
-35 -127 406 0
36 128 -315 0
-36 128 315 0
36 -128 315 0
-36 -128 -315 0
36 -407 0
128 -407 0
-36 -128 407 0
37 129 -316 0
-37 129 316 0
37 -129 316 0
-37 -129 -316 0
37 -408 0
129 -408 0
-37 -129 408 0
38 130 -317 0
-38 130 317 0
38 -130 317 0
-38 -130 -317 0
38 -409 0
130 -409 0
-38 -130 409 0
39 131 -318 0
-39 131 318 0
39 -131 318 0
-39 -131 -318 0
39 -410 0
131 -410 0
-39 -131 410 0
40 132 -319 0
-40 132 319 0
40 -132 319 0
-40 -132 -319 0
40 -411 0
132 -411 0
-40 -132 411 0
41 133 -320 0
-41 133 320 0
41 -133 320 0
-41 -133 -320 0
41 -412 0
133 -412 0
-41 -133 412 0
42 134 -321 0
-42 134 321 0
42 -134 321 0
-42 -134 -321 0
42 -413 0
134 -413 0
-42 -134 413 0
43 135 -322 0
-43 135 322 0
43 -135 322 0
-43 -135 -322 0
43 -414 0
135 -414 0
-43 -135 414 0
44 136 -323 0
-44 136 323 0
44 -136 323 0
-44 -136 -323 0
44 -415 0
136 -415 0
-44 -136 415 0
45 137 -324 0
-45 137 324 0
45 -137 324 0
-45 -137 -324 0
45 -416 0
137 -416 0
-45 -137 416 0
46 138 -325 0
-46 138 325 0
46 -138 325 0
-46 -138 -325 0
46 -417 0
138 -417 0
-46 -138 417 0
47 139 -326 0
-47 139 326 0
47 -139 326 0
-47 -139 -326 0
47 -418 0
139 -418 0
-47 -139 418 0
48 140 -327 0
-48 140 327 0
48 -140 327 0
-48 -140 -327 0
48 -419 0
140 -419 0
-48 -140 419 0
49 141 -328 0
-49 141 328 0
49 -141 328 0
-49 -141 -328 0
49 -420 0
141 -420 0
-49 -141 420 0
50 142 -329 0
-50 142 329 0
50 -142 329 0
-50 -142 -329 0
50 -421 0
142 -421 0
-50 -142 421 0
51 143 -330 0
-51 143 330 0
51 -143 330 0
-51 -143 -330 0
51 -422 0
143 -422 0
-51 -143 422 0
52 144 -331 0
-52 144 331 0
52 -144 331 0
-52 -144 -331 0
52 -423 0
144 -423 0
-52 -144 423 0
53 145 -332 0
-53 145 332 0
53 -145 332 0
-53 -145 -332 0
53 -424 0
145 -424 0
-53 -145 424 0
54 146 -333 0
-54 146 333 0
54 -146 333 0
-54 -146 -333 0
54 -425 0
146 -425 0
-54 -146 425 0
55 147 -334 0
-55 147 334 0
55 -147 334 0
-55 -147 -334 0
55 -426 0
147 -426 0
-55 -147 426 0
56 148 -335 0
-56 148 335 0
56 -148 335 0
-56 -148 -335 0
56 -427 0
148 -427 0
-56 -148 427 0
57 149 -336 0
-57 149 336 0
57 -149 336 0
-57 -149 -336 0
57 -428 0
149 -428 0
-57 -149 428 0
58 150 -337 0
-58 150 337 0
58 -150 337 0
-58 -150 -337 0
58 -429 0
150 -429 0
-58 -150 429 0
59 151 -338 0
-59 151 338 0
59 -151 338 0
-59 -151 -338 0
59 -430 0
151 -430 0
-59 -151 430 0
60 152 -339 0
-60 152 339 0
60 -152 339 0
-60 -152 -339 0
60 -431 0
152 -431 0
-60 -152 431 0
61 153 -340 0
-61 153 340 0
61 -153 340 0
-61 -153 -340 0
61 -432 0
153 -432 0
-61 -153 432 0
62 154 -341 0
-62 154 341 0
62 -154 341 0
-62 -154 -341 0
62 -433 0
154 -433 0
-62 -154 433 0
63 155 -342 0
-63 155 342 0
63 -155 342 0
-63 -155 -342 0
63 -434 0
155 -434 0
-63 -155 434 0
64 156 -343 0
-64 156 343 0
64 -156 343 0
-64 -156 -343 0
64 -435 0
156 -435 0
-64 -156 435 0
65 157 -344 0
-65 157 344 0
65 -157 344 0
-65 -157 -344 0
65 -436 0
157 -436 0
-65 -157 436 0
66 158 -345 0
-66 158 345 0
66 -158 345 0
-66 -158 -345 0
66 -437 0
158 -437 0
-66 -158 437 0
67 159 -346 0
-67 159 346 0
67 -159 346 0
-67 -159 -346 0
67 -438 0
159 -438 0
-67 -159 438 0
68 160 -347 0
-68 160 347 0
68 -160 347 0
-68 -160 -347 0
68 -439 0
160 -439 0
-68 -160 439 0
69 161 -348 0
-69 161 348 0
69 -161 348 0
-69 -161 -348 0
69 -440 0
161 -440 0
-69 -161 440 0
70 162 -349 0
-70 162 349 0
70 -162 349 0
-70 -162 -349 0
70 -441 0
162 -441 0
-70 -162 441 0
71 163 -350 0
-71 163 350 0
71 -163 350 0
-71 -163 -350 0
71 -442 0
163 -442 0
-71 -163 442 0
72 164 -351 0
-72 164 351 0
72 -164 351 0
-72 -164 -351 0
72 -443 0
164 -443 0
-72 -164 443 0
73 165 -352 0
-73 165 352 0
73 -165 352 0
-73 -165 -352 0
73 -444 0
165 -444 0
-73 -165 444 0
74 166 -353 0
-74 166 353 0
74 -166 353 0
-74 -166 -353 0
74 -445 0
166 -445 0
-74 -166 445 0
75 167 -354 0
-75 167 354 0
75 -167 354 0
-75 -167 -354 0
75 -446 0
167 -446 0
-75 -167 446 0
76 168 -355 0
-76 168 355 0
76 -168 355 0
-76 -168 -355 0
76 -447 0
168 -447 0
-76 -168 447 0
77 169 -356 0
-77 169 356 0
77 -169 356 0
-77 -169 -356 0
77 -448 0
169 -448 0
-77 -169 448 0
78 170 -357 0
-78 170 357 0
78 -170 357 0
-78 -170 -357 0
78 -449 0
170 -449 0
-78 -170 449 0
79 171 -358 0
-79 171 358 0
79 -171 358 0
-79 -171 -358 0
79 -450 0
171 -450 0
-79 -171 450 0
80 172 -359 0
-80 172 359 0
80 -172 359 0
-80 -172 -359 0
80 -451 0
172 -451 0
-80 -172 451 0
81 173 -360 0
-81 173 360 0
81 -173 360 0
-81 -173 -360 0
81 -452 0
173 -452 0
-81 -173 452 0
82 174 -361 0
-82 174 361 0
82 -174 361 0
-82 -174 -361 0
82 -453 0
174 -453 0
-82 -174 453 0
83 175 -362 0
-83 175 362 0
83 -175 362 0
-83 -175 -362 0
83 -454 0
175 -454 0
-83 -175 454 0
84 176 -363 0
-84 176 363 0
84 -176 363 0
-84 -176 -363 0
84 -455 0
176 -455 0
-84 -176 455 0
85 177 -364 0
-85 177 364 0
85 -177 364 0
-85 -177 -364 0
85 -456 0
177 -456 0
-85 -177 456 0
86 178 -365 0
-86 178 365 0
86 -178 365 0
-86 -178 -365 0
86 -457 0
178 -457 0
-86 -178 457 0
87 179 -366 0
-87 179 366 0
87 -179 366 0
-87 -179 -366 0
87 -458 0
179 -458 0
-87 -179 458 0
88 180 -367 0
-88 180 367 0
88 -180 367 0
-88 -180 -367 0
88 -459 0
180 -459 0
-88 -180 459 0
89 181 -368 0
-89 181 368 0
89 -181 368 0
-89 -181 -368 0
89 -460 0
181 -460 0
-89 -181 460 0
90 182 -369 0
-90 182 369 0
90 -182 369 0
-90 -182 -369 0
90 -461 0
182 -461 0
-90 -182 461 0
91 183 -370 0
-91 183 370 0
91 -183 370 0
-91 -183 -370 0
91 -462 0
183 -462 0
-91 -183 462 0
92 184 -371 0
-92 184 371 0
92 -184 371 0
-92 -184 -371 0
92 -463 0
184 -463 0
-92 -184 463 0
278 -556 0
280 -556 0
-278 -280 556 0
278 -557 0
280 -557 0
281 -557 0
-278 -280 -281 557 0
372 -558 0
281 -558 0
-372 -281 558 0
278 -559 0
280 -559 0
281 -559 0
282 -559 0
-278 -280 -281 -282 559 0
372 -560 0
281 -560 0
282 -560 0
-372 -281 -282 560 0
373 -561 0
282 -561 0
-373 -282 561 0
278 -562 0
280 -562 0
281 -562 0
282 -562 0
283 -562 0
-278 -280 -281 -282 -283 562 0
372 -563 0
281 -563 0
282 -563 0
283 -563 0
-372 -281 -282 -283 563 0
373 -564 0
282 -564 0
283 -564 0
-373 -282 -283 564 0
374 -565 0
283 -565 0
-374 -283 565 0
-372 464 0
-556 464 0
372 556 -464 0
-373 465 0
-557 465 0
-558 465 0
373 557 558 -465 0
-374 466 0
-559 466 0
-560 466 0
-561 466 0
374 559 560 561 -466 0
-375 467 0
-562 467 0
-563 467 0
-564 467 0
-565 467 0
375 562 563 564 565 -467 0
467 -566 0
284 -566 0
-467 -284 566 0
467 -567 0
284 -567 0
285 -567 0
-467 -284 -285 567 0
376 -568 0
285 -568 0
-376 -285 568 0
467 -569 0
284 -569 0
285 -569 0
286 -569 0
-467 -284 -285 -286 569 0
376 -570 0
285 -570 0
286 -570 0
-376 -285 -286 570 0
377 -571 0
286 -571 0
-377 -286 571 0
467 -572 0
284 -572 0
285 -572 0
286 -572 0
287 -572 0
-467 -284 -285 -286 -287 572 0
376 -573 0
285 -573 0
286 -573 0
287 -573 0
-376 -285 -286 -287 573 0
377 -574 0
286 -574 0
287 -574 0
-377 -286 -287 574 0
378 -575 0
287 -575 0
-378 -287 575 0
-376 468 0
-566 468 0
376 566 -468 0
-377 469 0
-567 469 0
-568 469 0
377 567 568 -469 0
-378 470 0
-569 470 0
-570 470 0
-571 470 0
378 569 570 571 -470 0
-379 471 0
-572 471 0
-573 471 0
-574 471 0
-575 471 0
379 572 573 574 575 -471 0
471 -576 0
288 -576 0
-471 -288 576 0
471 -577 0
288 -577 0
289 -577 0
-471 -288 -289 577 0
380 -578 0
289 -578 0
-380 -289 578 0
471 -579 0
288 -579 0
289 -579 0
290 -579 0
-471 -288 -289 -290 579 0
380 -580 0
289 -580 0
290 -580 0
-380 -289 -290 580 0
381 -581 0
290 -581 0
-381 -290 581 0
471 -582 0
288 -582 0
289 -582 0
290 -582 0
291 -582 0
-471 -288 -289 -290 -291 582 0
380 -583 0
289 -583 0
290 -583 0
291 -583 0
-380 -289 -290 -291 583 0
381 -584 0
290 -584 0
291 -584 0
-381 -290 -291 584 0
382 -585 0
291 -585 0
-382 -291 585 0
-380 472 0
-576 472 0
380 576 -472 0
-381 473 0
-577 473 0
-578 473 0
381 577 578 -473 0
-382 474 0
-579 474 0
-580 474 0
-581 474 0
382 579 580 581 -474 0
-383 475 0
-582 475 0
-583 475 0
-584 475 0
-585 475 0
383 582 583 584 585 -475 0
475 -586 0
292 -586 0
-475 -292 586 0
475 -587 0
292 -587 0
293 -587 0
-475 -292 -293 587 0
384 -588 0
293 -588 0
-384 -293 588 0
475 -589 0
292 -589 0
293 -589 0
294 -589 0
-475 -292 -293 -294 589 0
384 -590 0
293 -590 0
294 -590 0
-384 -293 -294 590 0
385 -591 0
294 -591 0
-385 -294 591 0
475 -592 0
292 -592 0
293 -592 0
294 -592 0
295 -592 0
-475 -292 -293 -294 -295 592 0
384 -593 0
293 -593 0
294 -593 0
295 -593 0
-384 -293 -294 -295 593 0
385 -594 0
294 -594 0
295 -594 0
-385 -294 -295 594 0
386 -595 0
295 -595 0
-386 -295 595 0
-384 476 0
-586 476 0
384 586 -476 0
-385 477 0
-587 477 0
-588 477 0
385 587 588 -477 0
-386 478 0
-589 478 0
-590 478 0
-591 478 0
386 589 590 591 -478 0
-387 479 0
-592 479 0
-593 479 0
-594 479 0
-595 479 0
387 592 593 594 595 -479 0
479 -596 0
296 -596 0
-479 -296 596 0
479 -597 0
296 -597 0
297 -597 0
-479 -296 -297 597 0
388 -598 0
297 -598 0
-388 -297 598 0
479 -599 0
296 -599 0
297 -599 0
298 -599 0
-479 -296 -297 -298 599 0
388 -600 0
297 -600 0
298 -600 0
-388 -297 -298 600 0
389 -601 0
298 -601 0
-389 -298 601 0
479 -602 0
296 -602 0
297 -602 0
298 -602 0
299 -602 0
-479 -296 -297 -298 -299 602 0
388 -603 0
297 -603 0
298 -603 0
299 -603 0
-388 -297 -298 -299 603 0
389 -604 0
298 -604 0
299 -604 0
-389 -298 -299 604 0
390 -605 0
299 -605 0
-390 -299 605 0
-388 480 0
-596 480 0
388 596 -480 0
-389 481 0
-597 481 0
-598 481 0
389 597 598 -481 0
-390 482 0
-599 482 0
-600 482 0
-601 482 0
390 599 600 601 -482 0
-391 483 0
-602 483 0
-603 483 0
-604 483 0
-605 483 0
391 602 603 604 605 -483 0
483 -606 0
300 -606 0
-483 -300 606 0
483 -607 0
300 -607 0
301 -607 0
-483 -300 -301 607 0
392 -608 0
301 -608 0
-392 -301 608 0
483 -609 0
300 -609 0
301 -609 0
302 -609 0
-483 -300 -301 -302 609 0
392 -610 0
301 -610 0
302 -610 0
-392 -301 -302 610 0
393 -611 0
302 -611 0
-393 -302 611 0
483 -612 0
300 -612 0
301 -612 0
302 -612 0
303 -612 0
-483 -300 -301 -302 -303 612 0
392 -613 0
301 -613 0
302 -613 0
303 -613 0
-392 -301 -302 -303 613 0
393 -614 0
302 -614 0
303 -614 0
-393 -302 -303 614 0
394 -615 0
303 -615 0
-394 -303 615 0
-392 484 0
-606 484 0
392 606 -484 0
-393 485 0
-607 485 0
-608 485 0
393 607 608 -485 0
-394 486 0
-609 486 0
-610 486 0
-611 486 0
394 609 610 611 -486 0
-395 487 0
-612 487 0
-613 487 0
-614 487 0
-615 487 0
395 612 613 614 615 -487 0
487 -616 0
304 -616 0
-487 -304 616 0
487 -617 0
304 -617 0
305 -617 0
-487 -304 -305 617 0
396 -618 0
305 -618 0
-396 -305 618 0
487 -619 0
304 -619 0
305 -619 0
306 -619 0
-487 -304 -305 -306 619 0
396 -620 0
305 -620 0
306 -620 0
-396 -305 -306 620 0
397 -621 0
306 -621 0
-397 -306 621 0
487 -622 0
304 -622 0
305 -622 0
306 -622 0
307 -622 0
-487 -304 -305 -306 -307 622 0
396 -623 0
305 -623 0
306 -623 0
307 -623 0
-396 -305 -306 -307 623 0
397 -624 0
306 -624 0
307 -624 0
-397 -306 -307 624 0
398 -625 0
307 -625 0
-398 -307 625 0
-396 488 0
-616 488 0
396 616 -488 0
-397 489 0
-617 489 0
-618 489 0
397 617 618 -489 0
-398 490 0
-619 490 0
-620 490 0
-621 490 0
398 619 620 621 -490 0
-399 491 0
-622 491 0
-623 491 0
-624 491 0
-625 491 0
399 622 623 624 625 -491 0
491 -626 0
308 -626 0
-491 -308 626 0
491 -627 0
308 -627 0
309 -627 0
-491 -308 -309 627 0
400 -628 0
309 -628 0
-400 -309 628 0
491 -629 0
308 -629 0
309 -629 0
310 -629 0
-491 -308 -309 -310 629 0
400 -630 0
309 -630 0
310 -630 0
-400 -309 -310 630 0
401 -631 0
310 -631 0
-401 -310 631 0
491 -632 0
308 -632 0
309 -632 0
310 -632 0
311 -632 0
-491 -308 -309 -310 -311 632 0
400 -633 0
309 -633 0
310 -633 0
311 -633 0
-400 -309 -310 -311 633 0
401 -634 0
310 -634 0
311 -634 0
-401 -310 -311 634 0
402 -635 0
311 -635 0
-402 -311 635 0
-400 492 0
-626 492 0
400 626 -492 0
-401 493 0
-627 493 0
-628 493 0
401 627 628 -493 0
-402 494 0
-629 494 0
-630 494 0
-631 494 0
402 629 630 631 -494 0
-403 495 0
-632 495 0
-633 495 0
-634 495 0
-635 495 0
403 632 633 634 635 -495 0
495 -636 0
312 -636 0
-495 -312 636 0
495 -637 0
312 -637 0
313 -637 0
-495 -312 -313 637 0
404 -638 0
313 -638 0
-404 -313 638 0
495 -639 0
312 -639 0
313 -639 0
314 -639 0
-495 -312 -313 -314 639 0
404 -640 0
313 -640 0
314 -640 0
-404 -313 -314 640 0
405 -641 0
314 -641 0
-405 -314 641 0
495 -642 0
312 -642 0
313 -642 0
314 -642 0
315 -642 0
-495 -312 -313 -314 -315 642 0
404 -643 0
313 -643 0
314 -643 0
315 -643 0
-404 -313 -314 -315 643 0
405 -644 0
314 -644 0
315 -644 0
-405 -314 -315 644 0
406 -645 0
315 -645 0
-406 -315 645 0
-404 496 0
-636 496 0
404 636 -496 0
-405 497 0
-637 497 0
-638 497 0
405 637 638 -497 0
-406 498 0
-639 498 0
-640 498 0
-641 498 0
406 639 640 641 -498 0
-407 499 0
-642 499 0
-643 499 0
-644 499 0
-645 499 0
407 642 643 644 645 -499 0
499 -646 0
316 -646 0
-499 -316 646 0
499 -647 0
316 -647 0
317 -647 0
-499 -316 -317 647 0
408 -648 0
317 -648 0
-408 -317 648 0
499 -649 0
316 -649 0
317 -649 0
318 -649 0
-499 -316 -317 -318 649 0
408 -650 0
317 -650 0
318 -650 0
-408 -317 -318 650 0
409 -651 0
318 -651 0
-409 -318 651 0
499 -652 0
316 -652 0
317 -652 0
318 -652 0
319 -652 0
-499 -316 -317 -318 -319 652 0
408 -653 0
317 -653 0
318 -653 0
319 -653 0
-408 -317 -318 -319 653 0
409 -654 0
318 -654 0
319 -654 0
-409 -318 -319 654 0
410 -655 0
319 -655 0
-410 -319 655 0
-408 500 0
-646 500 0
408 646 -500 0
-409 501 0
-647 501 0
-648 501 0
409 647 648 -501 0
-410 502 0
-649 502 0
-650 502 0
-651 502 0
410 649 650 651 -502 0
-411 503 0
-652 503 0
-653 503 0
-654 503 0
-655 503 0
411 652 653 654 655 -503 0
503 -656 0
320 -656 0
-503 -320 656 0
503 -657 0
320 -657 0
321 -657 0
-503 -320 -321 657 0
412 -658 0
321 -658 0
-412 -321 658 0
503 -659 0
320 -659 0
321 -659 0
322 -659 0
-503 -320 -321 -322 659 0
412 -660 0
321 -660 0
322 -660 0
-412 -321 -322 660 0
413 -661 0
322 -661 0
-413 -322 661 0
503 -662 0
320 -662 0
321 -662 0
322 -662 0
323 -662 0
-503 -320 -321 -322 -323 662 0
412 -663 0
321 -663 0
322 -663 0
323 -663 0
-412 -321 -322 -323 663 0
413 -664 0
322 -664 0
323 -664 0
-413 -322 -323 664 0
414 -665 0
323 -665 0
-414 -323 665 0
-412 504 0
-656 504 0
412 656 -504 0
-413 505 0
-657 505 0
-658 505 0
413 657 658 -505 0
-414 506 0
-659 506 0
-660 506 0
-661 506 0
414 659 660 661 -506 0
-415 507 0
-662 507 0
-663 507 0
-664 507 0
-665 507 0
415 662 663 664 665 -507 0
507 -666 0
324 -666 0
-507 -324 666 0
507 -667 0
324 -667 0
325 -667 0
-507 -324 -325 667 0
416 -668 0
325 -668 0
-416 -325 668 0
507 -669 0
324 -669 0
325 -669 0
326 -669 0
-507 -324 -325 -326 669 0
416 -670 0
325 -670 0
326 -670 0
-416 -325 -326 670 0
417 -671 0
326 -671 0
-417 -326 671 0
507 -672 0
324 -672 0
325 -672 0
326 -672 0
327 -672 0
-507 -324 -325 -326 -327 672 0
416 -673 0
325 -673 0
326 -673 0
327 -673 0
-416 -325 -326 -327 673 0
417 -674 0
326 -674 0
327 -674 0
-417 -326 -327 674 0
418 -675 0
327 -675 0
-418 -327 675 0
-416 508 0
-666 508 0
416 666 -508 0
-417 509 0
-667 509 0
-668 509 0
417 667 668 -509 0
-418 510 0
-669 510 0
-670 510 0
-671 510 0
418 669 670 671 -510 0
-419 511 0
-672 511 0
-673 511 0
-674 511 0
-675 511 0
419 672 673 674 675 -511 0
511 -676 0
328 -676 0
-511 -328 676 0
511 -677 0
328 -677 0
329 -677 0
-511 -328 -329 677 0
420 -678 0
329 -678 0
-420 -329 678 0
511 -679 0
328 -679 0
329 -679 0
330 -679 0
-511 -328 -329 -330 679 0
420 -680 0
329 -680 0
330 -680 0
-420 -329 -330 680 0
421 -681 0
330 -681 0
-421 -330 681 0
511 -682 0
328 -682 0
329 -682 0
330 -682 0
331 -682 0
-511 -328 -329 -330 -331 682 0
420 -683 0
329 -683 0
330 -683 0
331 -683 0
-420 -329 -330 -331 683 0
421 -684 0
330 -684 0
331 -684 0
-421 -330 -331 684 0
422 -685 0
331 -685 0
-422 -331 685 0
-420 512 0
-676 512 0
420 676 -512 0
-421 513 0
-677 513 0
-678 513 0
421 677 678 -513 0
-422 514 0
-679 514 0
-680 514 0
-681 514 0
422 679 680 681 -514 0
-423 515 0
-682 515 0
-683 515 0
-684 515 0
-685 515 0
423 682 683 684 685 -515 0
515 -686 0
332 -686 0
-515 -332 686 0
515 -687 0
332 -687 0
333 -687 0
-515 -332 -333 687 0
424 -688 0
333 -688 0
-424 -333 688 0
515 -689 0
332 -689 0
333 -689 0
334 -689 0
-515 -332 -333 -334 689 0
424 -690 0
333 -690 0
334 -690 0
-424 -333 -334 690 0
425 -691 0
334 -691 0
-425 -334 691 0
515 -692 0
332 -692 0
333 -692 0
334 -692 0
335 -692 0
-515 -332 -333 -334 -335 692 0
424 -693 0
333 -693 0
334 -693 0
335 -693 0
-424 -333 -334 -335 693 0
425 -694 0
334 -694 0
335 -694 0
-425 -334 -335 694 0
426 -695 0
335 -695 0
-426 -335 695 0
-424 516 0
-686 516 0
424 686 -516 0
-425 517 0
-687 517 0
-688 517 0
425 687 688 -517 0
-426 518 0
-689 518 0
-690 518 0
-691 518 0
426 689 690 691 -518 0
-427 519 0
-692 519 0
-693 519 0
-694 519 0
-695 519 0
427 692 693 694 695 -519 0
519 -696 0
336 -696 0
-519 -336 696 0
519 -697 0
336 -697 0
337 -697 0
-519 -336 -337 697 0
428 -698 0
337 -698 0
-428 -337 698 0
519 -699 0
336 -699 0
337 -699 0
338 -699 0
-519 -336 -337 -338 699 0
428 -700 0
337 -700 0
338 -700 0
-428 -337 -338 700 0
429 -701 0
338 -701 0
-429 -338 701 0
519 -702 0
336 -702 0
337 -702 0
338 -702 0
339 -702 0
-519 -336 -337 -338 -339 702 0
428 -703 0
337 -703 0
338 -703 0
339 -703 0
-428 -337 -338 -339 703 0
429 -704 0
338 -704 0
339 -704 0
-429 -338 -339 704 0
430 -705 0
339 -705 0
-430 -339 705 0
-428 520 0
-696 520 0
428 696 -520 0
-429 521 0
-697 521 0
-698 521 0
429 697 698 -521 0
-430 522 0
-699 522 0
-700 522 0
-701 522 0
430 699 700 701 -522 0
-431 523 0
-702 523 0
-703 523 0
-704 523 0
-705 523 0
431 702 703 704 705 -523 0
523 -706 0
340 -706 0
-523 -340 706 0
523 -707 0
340 -707 0
341 -707 0
-523 -340 -341 707 0
432 -708 0
341 -708 0
-432 -341 708 0
523 -709 0
340 -709 0
341 -709 0
342 -709 0
-523 -340 -341 -342 709 0
432 -710 0
341 -710 0
342 -710 0
-432 -341 -342 710 0
433 -711 0
342 -711 0
-433 -342 711 0
523 -712 0
340 -712 0
341 -712 0
342 -712 0
343 -712 0
-523 -340 -341 -342 -343 712 0
432 -713 0
341 -713 0
342 -713 0
343 -713 0
-432 -341 -342 -343 713 0
433 -714 0
342 -714 0
343 -714 0
-433 -342 -343 714 0
434 -715 0
343 -715 0
-434 -343 715 0
-432 524 0
-706 524 0
432 706 -524 0
-433 525 0
-707 525 0
-708 525 0
433 707 708 -525 0
-434 526 0
-709 526 0
-710 526 0
-711 526 0
434 709 710 711 -526 0
-435 527 0
-712 527 0
-713 527 0
-714 527 0
-715 527 0
435 712 713 714 715 -527 0
527 -716 0
344 -716 0
-527 -344 716 0
527 -717 0
344 -717 0
345 -717 0
-527 -344 -345 717 0
436 -718 0
345 -718 0
-436 -345 718 0
527 -719 0
344 -719 0
345 -719 0
346 -719 0
-527 -344 -345 -346 719 0
436 -720 0
345 -720 0
346 -720 0
-436 -345 -346 720 0
437 -721 0
346 -721 0
-437 -346 721 0
527 -722 0
344 -722 0
345 -722 0
346 -722 0
347 -722 0
-527 -344 -345 -346 -347 722 0
436 -723 0
345 -723 0
346 -723 0
347 -723 0
-436 -345 -346 -347 723 0
437 -724 0
346 -724 0
347 -724 0
-437 -346 -347 724 0
438 -725 0
347 -725 0
-438 -347 725 0
-436 528 0
-716 528 0
436 716 -528 0
-437 529 0
-717 529 0
-718 529 0
437 717 718 -529 0
-438 530 0
-719 530 0
-720 530 0
-721 530 0
438 719 720 721 -530 0
-439 531 0
-722 531 0
-723 531 0
-724 531 0
-725 531 0
439 722 723 724 725 -531 0
531 -726 0
348 -726 0
-531 -348 726 0
531 -727 0
348 -727 0
349 -727 0
-531 -348 -349 727 0
440 -728 0
349 -728 0
-440 -349 728 0
531 -729 0
348 -729 0
349 -729 0
350 -729 0
-531 -348 -349 -350 729 0
440 -730 0
349 -730 0
350 -730 0
-440 -349 -350 730 0
441 -731 0
350 -731 0
-441 -350 731 0
531 -732 0
348 -732 0
349 -732 0
350 -732 0
351 -732 0
-531 -348 -349 -350 -351 732 0
440 -733 0
349 -733 0
350 -733 0
351 -733 0
-440 -349 -350 -351 733 0
441 -734 0
350 -734 0
351 -734 0
-441 -350 -351 734 0
442 -735 0
351 -735 0
-442 -351 735 0
-440 532 0
-726 532 0
440 726 -532 0
-441 533 0
-727 533 0
-728 533 0
441 727 728 -533 0
-442 534 0
-729 534 0
-730 534 0
-731 534 0
442 729 730 731 -534 0
-443 535 0
-732 535 0
-733 535 0
-734 535 0
-735 535 0
443 732 733 734 735 -535 0
535 -736 0
352 -736 0
-535 -352 736 0
535 -737 0
352 -737 0
353 -737 0
-535 -352 -353 737 0
444 -738 0
353 -738 0
-444 -353 738 0
535 -739 0
352 -739 0
353 -739 0
354 -739 0
-535 -352 -353 -354 739 0
444 -740 0
353 -740 0
354 -740 0
-444 -353 -354 740 0
445 -741 0
354 -741 0
-445 -354 741 0
535 -742 0
352 -742 0
353 -742 0
354 -742 0
355 -742 0
-535 -352 -353 -354 -355 742 0
444 -743 0
353 -743 0
354 -743 0
355 -743 0
-444 -353 -354 -355 743 0
445 -744 0
354 -744 0
355 -744 0
-445 -354 -355 744 0
446 -745 0
355 -745 0
-446 -355 745 0
-444 536 0
-736 536 0
444 736 -536 0
-445 537 0
-737 537 0
-738 537 0
445 737 738 -537 0
-446 538 0
-739 538 0
-740 538 0
-741 538 0
446 739 740 741 -538 0
-447 539 0
-742 539 0
-743 539 0
-744 539 0
-745 539 0
447 742 743 744 745 -539 0
539 -746 0
356 -746 0
-539 -356 746 0
539 -747 0
356 -747 0
357 -747 0
-539 -356 -357 747 0
448 -748 0
357 -748 0
-448 -357 748 0
539 -749 0
356 -749 0
357 -749 0
358 -749 0
-539 -356 -357 -358 749 0
448 -750 0
357 -750 0
358 -750 0
-448 -357 -358 750 0
449 -751 0
358 -751 0
-449 -358 751 0
539 -752 0
356 -752 0
357 -752 0
358 -752 0
359 -752 0
-539 -356 -357 -358 -359 752 0
448 -753 0
357 -753 0
358 -753 0
359 -753 0
-448 -357 -358 -359 753 0
449 -754 0
358 -754 0
359 -754 0
-449 -358 -359 754 0
450 -755 0
359 -755 0
-450 -359 755 0
-448 540 0
-746 540 0
448 746 -540 0
-449 541 0
-747 541 0
-748 541 0
449 747 748 -541 0
-450 542 0
-749 542 0
-750 542 0
-751 542 0
450 749 750 751 -542 0
-451 543 0
-752 543 0
-753 543 0
-754 543 0
-755 543 0
451 752 753 754 755 -543 0
543 -756 0
360 -756 0
-543 -360 756 0
543 -757 0
360 -757 0
361 -757 0
-543 -360 -361 757 0
452 -758 0
361 -758 0
-452 -361 758 0
543 -759 0
360 -759 0
361 -759 0
362 -759 0
-543 -360 -361 -362 759 0
452 -760 0
361 -760 0
362 -760 0
-452 -361 -362 760 0
453 -761 0
362 -761 0
-453 -362 761 0
543 -762 0
360 -762 0
361 -762 0
362 -762 0
363 -762 0
-543 -360 -361 -362 -363 762 0
452 -763 0
361 -763 0
362 -763 0
363 -763 0
-452 -361 -362 -363 763 0
453 -764 0
362 -764 0
363 -764 0
-453 -362 -363 764 0
454 -765 0
363 -765 0
-454 -363 765 0
-452 544 0
-756 544 0
452 756 -544 0
-453 545 0
-757 545 0
-758 545 0
453 757 758 -545 0
-454 546 0
-759 546 0
-760 546 0
-761 546 0
454 759 760 761 -546 0
-455 547 0
-762 547 0
-763 547 0
-764 547 0
-765 547 0
455 762 763 764 765 -547 0
547 -766 0
364 -766 0
-547 -364 766 0
547 -767 0
364 -767 0
365 -767 0
-547 -364 -365 767 0
456 -768 0
365 -768 0
-456 -365 768 0
547 -769 0
364 -769 0
365 -769 0
366 -769 0
-547 -364 -365 -366 769 0
456 -770 0
365 -770 0
366 -770 0
-456 -365 -366 770 0
457 -771 0
366 -771 0
-457 -366 771 0
547 -772 0
364 -772 0
365 -772 0
366 -772 0
367 -772 0
-547 -364 -365 -366 -367 772 0
456 -773 0
365 -773 0
366 -773 0
367 -773 0
-456 -365 -366 -367 773 0
457 -774 0
366 -774 0
367 -774 0
-457 -366 -367 774 0
458 -775 0
367 -775 0
-458 -367 775 0
-456 548 0
-766 548 0
456 766 -548 0
-457 549 0
-767 549 0
-768 549 0
457 767 768 -549 0
-458 550 0
-769 550 0
-770 550 0
-771 550 0
458 769 770 771 -550 0
-459 551 0
-772 551 0
-773 551 0
-774 551 0
-775 551 0
459 772 773 774 775 -551 0
551 -776 0
368 -776 0
-551 -368 776 0
551 -777 0
368 -777 0
369 -777 0
-551 -368 -369 777 0
460 -778 0
369 -778 0
-460 -369 778 0
551 -779 0
368 -779 0
369 -779 0
370 -779 0
-551 -368 -369 -370 779 0
460 -780 0
369 -780 0
370 -780 0
-460 -369 -370 780 0
461 -781 0
370 -781 0
-461 -370 781 0
551 -782 0
368 -782 0
369 -782 0
370 -782 0
371 -782 0
-551 -368 -369 -370 -371 782 0
460 -783 0
369 -783 0
370 -783 0
371 -783 0
-460 -369 -370 -371 783 0
461 -784 0
370 -784 0
371 -784 0
-461 -370 -371 784 0
462 -785 0
371 -785 0
-462 -371 785 0
-460 552 0
-776 552 0
460 776 -552 0
-461 553 0
-777 553 0
-778 553 0
461 777 778 -553 0
-462 554 0
-779 554 0
-780 554 0
-781 554 0
462 779 780 781 -554 0
-463 555 0
-782 555 0
-783 555 0
-784 555 0
-785 555 0
463 782 783 784 785 -555 0
280 278 -185 0
-280 278 185 0
280 -278 185 0
-280 -278 -185 0
281 464 -186 0
-281 464 186 0
281 -464 186 0
-281 -464 -186 0
282 465 -187 0
-282 465 187 0
282 -465 187 0
-282 -465 -187 0
283 466 -188 0
-283 466 188 0
283 -466 188 0
-283 -466 -188 0
284 467 -189 0
-284 467 189 0
284 -467 189 0
-284 -467 -189 0
285 468 -190 0
-285 468 190 0
285 -468 190 0
-285 -468 -190 0
286 469 -191 0
-286 469 191 0
286 -469 191 0
-286 -469 -191 0
287 470 -192 0
-287 470 192 0
287 -470 192 0
-287 -470 -192 0
288 471 -193 0
-288 471 193 0
288 -471 193 0
-288 -471 -193 0
289 472 -194 0
-289 472 194 0
289 -472 194 0
-289 -472 -194 0
290 473 -195 0
-290 473 195 0
290 -473 195 0
-290 -473 -195 0
291 474 -196 0
-291 474 196 0
291 -474 196 0
-291 -474 -196 0
292 475 -197 0
-292 475 197 0
292 -475 197 0
-292 -475 -197 0
293 476 -198 0
-293 476 198 0
293 -476 198 0
-293 -476 -198 0
294 477 -199 0
-294 477 199 0
294 -477 199 0
-294 -477 -199 0
295 478 -200 0
-295 478 200 0
295 -478 200 0
-295 -478 -200 0
296 479 -201 0
-296 479 201 0
296 -479 201 0
-296 -479 -201 0
297 480 -202 0
-297 480 202 0
297 -480 202 0
-297 -480 -202 0
298 481 -203 0
-298 481 203 0
298 -481 203 0
-298 -481 -203 0
299 482 -204 0
-299 482 204 0
299 -482 204 0
-299 -482 -204 0
300 483 -205 0
-300 483 205 0
300 -483 205 0
-300 -483 -205 0
301 484 -206 0
-301 484 206 0
301 -484 206 0
-301 -484 -206 0
302 485 -207 0
-302 485 207 0
302 -485 207 0
-302 -485 -207 0
303 486 -208 0
-303 486 208 0
303 -486 208 0
-303 -486 -208 0
304 487 -209 0
-304 487 209 0
304 -487 209 0
-304 -487 -209 0
305 488 -210 0
-305 488 210 0
305 -488 210 0
-305 -488 -210 0
306 489 -211 0
-306 489 211 0
306 -489 211 0
-306 -489 -211 0
307 490 -212 0
-307 490 212 0
307 -490 212 0
-307 -490 -212 0
308 491 -213 0
-308 491 213 0
308 -491 213 0
-308 -491 -213 0
309 492 -214 0
-309 492 214 0
309 -492 214 0
-309 -492 -214 0
310 493 -215 0
-310 493 215 0
310 -493 215 0
-310 -493 -215 0
311 494 -216 0
-311 494 216 0
311 -494 216 0
-311 -494 -216 0
312 495 -217 0
-312 495 217 0
312 -495 217 0
-312 -495 -217 0
313 496 -218 0
-313 496 218 0
313 -496 218 0
-313 -496 -218 0
314 497 -219 0
-314 497 219 0
314 -497 219 0
-314 -497 -219 0
315 498 -220 0
-315 498 220 0
315 -498 220 0
-315 -498 -220 0
316 499 -221 0
-316 499 221 0
316 -499 221 0
-316 -499 -221 0
317 500 -222 0
-317 500 222 0
317 -500 222 0
-317 -500 -222 0
318 501 -223 0
-318 501 223 0
318 -501 223 0
-318 -501 -223 0
319 502 -224 0
-319 502 224 0
319 -502 224 0
-319 -502 -224 0
320 503 -225 0
-320 503 225 0
320 -503 225 0
-320 -503 -225 0
321 504 -226 0
-321 504 226 0
321 -504 226 0
-321 -504 -226 0
322 505 -227 0
-322 505 227 0
322 -505 227 0
-322 -505 -227 0
323 506 -228 0
-323 506 228 0
323 -506 228 0
-323 -506 -228 0
324 507 -229 0
-324 507 229 0
324 -507 229 0
-324 -507 -229 0
325 508 -230 0
-325 508 230 0
325 -508 230 0
-325 -508 -230 0
326 509 -231 0
-326 509 231 0
326 -509 231 0
-326 -509 -231 0
327 510 -232 0
-327 510 232 0
327 -510 232 0
-327 -510 -232 0
328 511 -233 0
-328 511 233 0
328 -511 233 0
-328 -511 -233 0
329 512 -234 0
-329 512 234 0
329 -512 234 0
-329 -512 -234 0
330 513 -235 0
-330 513 235 0
330 -513 235 0
-330 -513 -235 0
331 514 -236 0
-331 514 236 0
331 -514 236 0
-331 -514 -236 0
332 515 -237 0
-332 515 237 0
332 -515 237 0
-332 -515 -237 0
333 516 -238 0
-333 516 238 0
333 -516 238 0
-333 -516 -238 0
334 517 -239 0
-334 517 239 0
334 -517 239 0
-334 -517 -239 0
335 518 -240 0
-335 518 240 0
335 -518 240 0
-335 -518 -240 0
336 519 -241 0
-336 519 241 0
336 -519 241 0
-336 -519 -241 0
337 520 -242 0
-337 520 242 0
337 -520 242 0
-337 -520 -242 0
338 521 -243 0
-338 521 243 0
338 -521 243 0
-338 -521 -243 0
339 522 -244 0
-339 522 244 0
339 -522 244 0
-339 -522 -244 0
340 523 -245 0
-340 523 245 0
340 -523 245 0
-340 -523 -245 0
341 524 -246 0
-341 524 246 0
341 -524 246 0
-341 -524 -246 0
342 525 -247 0
-342 525 247 0
342 -525 247 0
-342 -525 -247 0
343 526 -248 0
-343 526 248 0
343 -526 248 0
-343 -526 -248 0
344 527 -249 0
-344 527 249 0
344 -527 249 0
-344 -527 -249 0
345 528 -250 0
-345 528 250 0
345 -528 250 0
-345 -528 -250 0
346 529 -251 0
-346 529 251 0
346 -529 251 0
-346 -529 -251 0
347 530 -252 0
-347 530 252 0
347 -530 252 0
-347 -530 -252 0
348 531 -253 0
-348 531 253 0
348 -531 253 0
-348 -531 -253 0
349 532 -254 0
-349 532 254 0
349 -532 254 0
-349 -532 -254 0
350 533 -255 0
-350 533 255 0
350 -533 255 0
-350 -533 -255 0
351 534 -256 0
-351 534 256 0
351 -534 256 0
-351 -534 -256 0
352 535 -257 0
-352 535 257 0
352 -535 257 0
-352 -535 -257 0
353 536 -258 0
-353 536 258 0
353 -536 258 0
-353 -536 -258 0
354 537 -259 0
-354 537 259 0
354 -537 259 0
-354 -537 -259 0
355 538 -260 0
-355 538 260 0
355 -538 260 0
-355 -538 -260 0
356 539 -261 0
-356 539 261 0
356 -539 261 0
-356 -539 -261 0
357 540 -262 0
-357 540 262 0
357 -540 262 0
-357 -540 -262 0
358 541 -263 0
-358 541 263 0
358 -541 263 0
-358 -541 -263 0
359 542 -264 0
-359 542 264 0
359 -542 264 0
-359 -542 -264 0
360 543 -265 0
-360 543 265 0
360 -543 265 0
-360 -543 -265 0
361 544 -266 0
-361 544 266 0
361 -544 266 0
-361 -544 -266 0
362 545 -267 0
-362 545 267 0
362 -545 267 0
-362 -545 -267 0
363 546 -268 0
-363 546 268 0
363 -546 268 0
-363 -546 -268 0
364 547 -269 0
-364 547 269 0
364 -547 269 0
-364 -547 -269 0
365 548 -270 0
-365 548 270 0
365 -548 270 0
-365 -548 -270 0
366 549 -271 0
-366 549 271 0
366 -549 271 0
-366 -549 -271 0
367 550 -272 0
-367 550 272 0
367 -550 272 0
-367 -550 -272 0
368 551 -273 0
-368 551 273 0
368 -551 273 0
-368 -551 -273 0
369 552 -274 0
-369 552 274 0
369 -552 274 0
-369 -552 -274 0
370 553 -275 0
-370 553 275 0
370 -553 275 0
-370 -553 -275 0
371 554 -276 0
-371 554 276 0
371 -554 276 0
-371 -554 -276 0
555 -277 0
-555 277 0
